 200 30 
 39 15 1 9 17 24 4 66 78 13 91 11 
 61 77 22 57 43 2 60 64 42 36 16 25 
 93 28 35 13 54 44 
 23 
 1 2 3 4 5 7 8 9 10 12 13 16 
 17 18 19 21 23 24 25 26 28 29 30 
 21 
 1 2 5 6 7 10 11 12 14 15 16 17 
 19 20 21 22 24 25 27 28 29 
 14 
 4 5 6 8 10 12 13 19 21 22 23 24 
 27 30 
 29 
 1 2 3 4 5 6 7 8 10 11 12 13 
 14 15 16 17 18 19 20 21 22 23 24 25 
 26 27 28 29 30 
 21 
 1 4 6 7 8 11 12 13 15 16 17 18 
 20 21 23 24 25 26 28 29 30 
 28 
 1 2 3 4 6 7 8 9 10 11 12 13 
 14 15 17 18 19 20 21 22 23 24 25 26 
 27 28 29 30 
 15 
 1 2 5 8 9 10 11 14 19 21 22 24 
 25 26 29 
 20 
 1 3 5 6 7 9 10 11 12 13 14 16 
 18 20 22 23 25 26 28 29 
 8 
 7 9 10 13 14 17 22 29 
 11 
 2 8 11 17 19 21 22 23 24 28 30 
 11 
 2 10 11 14 15 16 17 18 20 21 28 
 24 
 1 2 3 4 5 6 9 10 11 12 13 14 
 15 17 18 21 22 23 24 26 27 28 29 30 
 18 
 2 3 5 6 12 13 15 16 17 19 20 22 
 23 24 25 26 27 30 
 13 
 1 4 6 8 9 15 16 18 19 22 23 25 
 28 
 15 
 3 4 5 8 11 13 15 16 18 19 20 21 
 26 28 29 
 28 
 1 2 3 4 5 6 7 8 9 11 12 13 
 14 15 16 17 18 19 20 21 22 23 24 26 
 27 28 29 30 
 15 
 2 3 5 6 9 10 11 15 16 17 21 23 
 24 25 30 
 9 
 6 10 12 16 22 24 27 29 30 
 10 
 8 10 11 13 14 15 16 18 20 30 
 16 
 3 5 7 8 11 16 17 19 20 21 23 24 
 25 27 28 30 
 18 
 2 4 7 8 9 10 11 12 15 16 18 21 
 22 23 25 27 29 30 
 2 
 18 27 
 20 
 1 2 4 7 8 9 11 12 13 15 17 18 
 19 21 22 23 24 26 28 29 
 14 
 1 3 5 8 9 16 18 19 21 23 24 26 
 29 30 
 23 
 1 2 3 4 5 7 9 10 11 12 13 15 
 16 18 20 21 22 23 24 26 28 29 30 
 20 
 1 2 3 4 5 7 11 12 13 15 17 19 
 21 22 25 26 27 28 29 30 
 9 
 1 5 6 11 20 21 23 28 29 
 2 
 1 13 
 26 
 2 3 4 5 6 7 8 9 10 11 12 13 
 15 16 17 18 19 22 23 24 25 26 27 28 
 29 30 
 5 
 4 15 26 28 29 
 28 
 1 2 3 4 5 6 7 8 9 10 11 12 
 13 14 15 16 17 18 19 20 21 22 24 25 
 27 28 29 30 
 21 
 2 3 4 6 7 9 12 13 14 15 16 17 
 19 20 21 23 24 25 26 27 30 
 10 
 1 4 5 6 10 16 22 24 27 30 
 25 
 1 3 4 5 6 7 9 10 12 13 14 15 
 16 17 19 20 21 22 23 24 25 26 27 28 
 30 
 15 
 2 3 5 8 10 11 14 15 16 18 21 23 
 25 27 29 
 25 
 1 2 3 6 7 9 11 12 13 14 15 16 
 17 18 19 20 21 22 23 24 25 26 27 29 
 30 
 20 
 1 2 3 4 6 7 9 10 11 12 13 15 
 19 20 24 25 26 28 29 30 
 9 
 4 8 10 11 13 19 27 29 30 
 2 
 9 27 
 10 
 1 3 7 9 15 17 22 23 28 30 
 25 
 1 2 3 4 5 6 7 9 10 11 12 13 
 14 15 16 18 20 21 23 24 25 26 27 29 
 30 
 6 
 3 7 14 20 22 25 
 26 
 1 2 4 5 6 7 9 10 11 12 13 14 
 15 16 18 19 20 21 22 23 24 25 26 28 
 29 30 
 18 
 2 4 5 9 10 11 12 13 14 16 20 22 
 23 25 26 27 29 30 
 26 
 2 3 4 6 7 8 9 10 11 12 13 14 
 15 16 17 18 19 21 23 24 25 26 27 28 
 29 30 
 7 
 2 7 8 9 17 18 28 
 26 
 1 3 4 5 6 7 9 10 11 12 13 14 
 16 17 18 20 21 22 23 24 25 26 27 28 
 29 30 
 5 
 3 10 13 15 27 
 13 
 1 2 4 11 12 16 18 19 23 26 27 29 
 30 
 11 
 1 7 9 11 16 20 21 22 24 25 26 
 14 
 3 9 10 12 13 14 15 17 18 19 20 24 
 26 27 
 18 
 3 4 5 6 7 11 13 15 16 17 19 20 
 21 23 24 25 28 29 
 29 
 1 2 3 4 5 6 7 8 9 10 11 12 
 13 14 15 16 17 19 20 21 22 23 24 25 
 26 27 28 29 30 
 8 
 1 2 8 12 17 21 22 29 
 25 
 1 2 3 5 7 8 9 10 12 13 14 15 
 16 17 18 20 21 22 23 24 25 26 28 29 
 30 
 29 
 1 2 3 4 5 6 7 8 9 10 11 12 
 13 14 15 16 17 18 19 20 21 23 24 25 
 26 27 28 29 30 
 4 
 6 14 16 28 
 24 
 2 4 5 6 7 8 9 10 11 12 13 14 
 15 18 19 21 22 23 24 25 27 28 29 30 
 12 
 4 5 6 8 12 14 18 19 20 23 26 28 
 3 
 3 8 14 
 24 
 1 2 5 6 9 10 11 12 13 14 15 16 
 17 18 19 20 21 22 23 24 25 26 29 30 
 9 
 6 10 11 21 22 24 25 27 30 
 14 
 4 9 10 11 13 14 16 18 20 23 26 28 
 29 30 
 27 
 1 2 3 4 5 6 8 9 10 11 12 13 
 14 15 16 17 18 20 21 22 24 25 26 27 
 28 29 30 
 25 
 1 2 3 4 5 6 7 8 10 11 12 13 
 15 16 18 21 22 23 24 25 26 27 28 29 
 30 
 30 
 1 2 3 4 5 6 7 8 9 10 11 12 
 13 14 15 16 17 18 19 20 21 22 23 24 
 25 26 27 28 29 30 
 15 
 1 2 7 8 10 13 14 16 18 23 24 25 
 27 28 30 
 30 
 1 2 3 4 5 6 7 8 9 10 11 12 
 13 14 15 16 17 18 19 20 21 22 23 24 
 25 26 27 28 29 30 
 14 
 2 3 4 7 10 12 15 18 19 20 22 27 
 28 29 
 6 
 2 5 7 13 23 28 
 9 
 3 4 11 13 15 16 17 26 30 
 19 
 2 3 4 5 7 8 9 11 12 14 15 18 
 20 22 23 25 26 28 29 
 18 
 1 2 4 5 8 9 10 11 14 19 20 21 
 22 23 24 26 29 30 
 6 
 3 8 17 20 22 24 
 17 
 1 3 4 5 6 7 11 12 16 17 18 20 
 21 24 25 28 30 
 8 
 4 5 16 19 21 23 28 29 
 15 
 1 2 3 6 7 8 9 14 16 17 19 23 
 25 26 28 
 2 
 16 19 
 30 
 1 2 3 4 5 6 7 8 9 10 11 12 
 13 14 15 16 17 18 19 20 21 22 23 24 
 25 26 27 28 29 30 
 25 
 1 2 3 4 5 6 8 9 10 11 12 13 
 14 15 17 18 21 22 23 24 25 26 27 29 
 30 
 18 
 1 2 3 4 5 6 12 13 15 16 18 22 
 23 25 26 27 29 30 
 29 
 1 2 3 4 5 6 7 8 9 10 11 12 
 13 14 15 16 17 18 19 21 22 23 24 25 
 26 27 28 29 30 
 28 
 1 2 3 4 5 6 7 8 9 11 12 13 
 14 15 16 17 18 19 20 21 22 23 24 26 
 27 28 29 30 
 7 
 3 11 14 19 21 24 28 
 19 
 2 3 4 7 9 11 12 14 16 17 19 20 
 21 24 26 27 28 29 30 
 21 
 1 4 5 8 9 10 11 12 13 14 15 17 
 19 20 22 23 24 26 28 29 30 
 16 
 2 3 7 8 12 14 16 17 18 21 23 24 
 25 27 28 30 
 16 
 1 3 5 7 9 10 12 14 16 17 20 21 
 22 25 26 30 
 19 
 1 2 4 5 7 10 11 12 14 15 16 18 
 19 20 25 26 27 28 29 
 6 
 1 2 5 9 10 15 
 15 
 2 3 5 6 13 17 18 20 21 22 23 24 
 27 28 29 
 19 
 3 4 5 7 10 12 13 14 16 17 18 20 
 22 24 25 26 28 29 30 
 17 
 2 3 4 8 9 10 11 12 13 15 16 17 
 20 23 24 26 28 
 29 
 1 2 3 4 5 6 7 8 9 10 11 12 
 13 14 15 16 17 18 19 20 21 22 24 25 
 26 27 28 29 30 
 6 
 10 13 14 21 23 24 
 17 
 1 2 5 6 8 9 10 11 14 15 18 20 
 24 26 27 28 30 
 12 
 2 5 6 7 10 11 13 19 21 22 28 30 
 26 
 1 2 3 4 6 7 8 9 10 11 12 14 
 15 17 18 19 20 21 22 23 24 25 26 27 
 28 29 
 4 
 11 18 23 29 
 24 
 1 3 4 5 7 8 10 11 12 13 14 15 
 16 17 19 20 21 23 24 26 27 28 29 30 
 2 
 5 17 
 10 
 6 7 8 10 11 15 17 20 25 29 
 14 
 5 6 7 8 11 13 14 16 18 21 23 27 
 28 30 
 10 
 2 3 4 8 9 10 13 14 24 25 
 7 
 8 10 14 18 25 28 30 
 9 
 2 3 10 11 18 19 25 26 27 
 20 
 1 2 3 4 5 6 8 10 11 13 14 15 
 20 21 23 24 25 26 27 30 
 13 
 1 2 3 7 8 10 11 12 16 22 24 29 
 30 
 10 
 1 2 3 9 12 13 20 23 25 26 
 9 
 1 3 5 15 21 23 24 25 26 
 16 
 6 8 10 12 13 15 17 20 22 23 24 25 
 26 27 29 30 
 27 
 1 2 3 4 5 6 8 9 10 11 12 13 
 14 15 17 18 19 20 21 22 23 24 25 26 
 28 29 30 
 22 
 2 5 6 7 8 9 10 12 13 15 16 17 
 18 20 21 22 23 25 26 27 28 29 
 17 
 1 4 5 8 11 13 16 17 18 19 20 21 
 23 26 27 28 30 
 13 
 2 3 5 6 8 10 13 14 16 18 20 28 
 29 
 6 
 1 3 7 10 17 30 
 20 
 1 2 3 4 5 7 9 10 11 12 13 15 
 17 19 20 23 26 27 29 30 
 8 
 3 5 10 15 17 19 22 25 
 8 
 3 4 12 14 15 21 28 29 
 23 
 1 3 4 5 6 7 8 10 12 15 16 17 
 18 20 21 22 23 24 25 26 27 28 29 
 22 
 1 3 4 5 6 7 8 9 10 11 12 14 
 16 17 20 21 22 23 24 27 29 30 
 14 
 1 2 3 8 9 10 12 13 16 17 19 20 
 21 24 
 13 
 7 8 9 10 11 12 18 19 20 24 26 27 
 29 
 17 
 1 6 8 10 12 14 17 18 21 22 23 24 
 25 26 27 29 30 
 25 
 1 2 3 4 5 6 7 8 10 11 12 13 
 15 16 17 19 20 21 22 23 25 26 28 29 
 30 
 15 
 1 2 4 5 8 9 10 12 13 14 16 24 
 25 26 30 
 8 
 7 16 17 23 25 26 28 29 
 2 
 2 22 
 16 
 1 3 4 5 7 8 13 14 18 20 22 23 
 27 28 29 30 
 9 
 4 6 9 13 19 20 21 25 29 
 21 
 2 3 5 8 10 11 12 14 15 16 18 19 
 20 21 22 23 24 26 27 29 30 
 28 
 1 2 3 4 6 7 8 9 10 11 12 13 
 14 16 17 18 19 20 21 22 23 24 25 26 
 27 28 29 30 
 21 
 1 2 3 5 6 7 9 11 12 13 15 16 
 17 18 21 23 24 25 26 29 30 
 4 
 4 12 16 25 
 25 
 1 2 3 4 5 6 7 8 9 11 13 14 
 15 16 17 19 20 21 22 23 24 26 28 29 
 30 
 20 
 3 4 5 6 7 8 9 11 12 14 15 16 
 20 23 24 25 26 27 28 30 
 11 
 2 4 8 10 11 16 17 19 20 21 30 
 15 
 2 7 11 12 13 14 19 20 21 22 24 26 
 28 29 30 
 8 
 2 9 12 14 18 19 27 29 
 21 
 1 2 4 5 6 9 10 11 12 13 14 15 
 18 19 22 23 24 26 28 29 30 
 7 
 8 10 14 18 20 25 27 
 9 
 4 6 9 10 16 24 25 27 29 
 28 
 1 2 4 5 6 7 8 9 10 11 12 13 
 14 15 16 17 18 19 21 22 23 24 25 26 
 27 28 29 30 
 3 
 16 22 28 
 26 
 1 2 3 4 5 6 7 8 9 10 11 12 
 14 16 18 19 20 21 22 23 25 26 27 28 
 29 30 
 21 
 1 2 3 4 5 6 7 9 12 14 15 16 
 20 21 23 24 25 27 28 29 30 
 7 
 5 7 11 21 24 25 28 
 19 
 1 3 4 5 8 9 10 16 19 20 21 22 
 23 25 26 27 28 29 30 
 11 
 1 4 5 6 12 18 21 22 23 25 29 
 7 
 3 4 7 16 23 24 26 
 11 
 1 3 4 6 7 8 12 16 27 28 30 
 23 
 1 3 4 5 7 9 10 11 12 13 14 15 
 16 17 18 19 20 21 23 25 26 29 30 
 10 
 2 5 6 7 8 11 18 21 23 29 
 23 
 1 3 4 5 6 8 9 10 11 14 15 16 
 17 19 20 22 23 24 26 27 28 29 30 
 30 
 1 2 3 4 5 6 7 8 9 10 11 12 
 13 14 15 16 17 18 19 20 21 22 23 24 
 25 26 27 28 29 30 
 3 
 1 3 25 
 9 
 1 5 8 12 15 16 18 20 27 
 27 
 1 2 3 4 5 7 8 9 10 11 12 13 
 14 15 16 17 18 19 20 21 22 23 24 26 
 27 29 30 
 14 
 3 5 7 8 10 11 14 16 19 21 22 23 
 28 30 
 11 
 5 6 9 10 12 16 20 21 25 29 30 
 2 
 11 14 
 20 
 4 5 7 8 9 11 12 13 14 16 17 18 
 20 21 22 23 25 26 27 29 
 16 
 1 2 3 4 9 10 11 13 15 17 18 19 
 21 24 27 28 
 30 
 1 2 3 4 5 6 7 8 9 10 11 12 
 13 14 15 16 17 18 19 20 21 22 23 24 
 25 26 27 28 29 30 
 28 
 1 2 3 4 6 7 8 9 10 11 13 14 
 15 16 17 18 19 20 21 22 23 24 25 26 
 27 28 29 30 
 22 
 1 2 3 5 7 8 9 10 11 15 16 17 
 19 20 22 24 25 26 27 28 29 30 
 24 
 1 2 4 5 7 8 9 11 12 13 15 16 
 18 19 20 21 22 23 24 25 27 28 29 30 
 16 
 4 6 9 13 14 15 16 17 18 19 20 21 
 22 25 29 30 
 23 
 2 3 6 7 9 10 12 13 14 15 16 17 
 18 19 20 21 22 24 25 26 27 28 30 
 4 
 6 11 14 19 
 21 
 1 3 4 6 9 10 12 13 14 16 17 19 
 20 23 24 25 26 27 28 29 30 
 21 
 1 2 3 4 6 7 9 10 12 13 14 17 
 19 20 22 23 26 27 28 29 30 
 5 
 4 10 18 24 28 
 13 
 2 4 9 13 14 16 17 19 21 25 27 29 
 30 
 11 
 2 4 5 9 10 12 19 20 21 27 29 
 15 
 4 5 9 10 11 12 13 14 16 17 20 21 
 23 26 28 
 10 
 1 2 3 6 11 13 15 16 23 26 
 29 
 1 2 3 4 5 6 7 8 9 10 11 12 
 13 14 15 16 17 18 19 20 21 22 23 24 
 25 26 27 29 30 
 28 
 1 2 3 4 5 6 7 8 9 10 11 12 
 13 14 15 16 18 19 20 21 22 23 24 25 
 26 27 29 30 
 23 
 1 2 3 4 5 8 10 11 12 13 14 16 
 18 20 21 22 23 24 25 26 27 28 29 
 11 
 1 2 11 14 15 17 18 21 25 26 27 
 14 
 1 4 5 9 12 15 16 19 22 25 27 28 
 29 30 
 12 
 1 3 5 7 8 9 13 19 21 22 23 25 
 4 
 7 12 15 29 
 13 
 2 3 4 5 6 9 10 13 14 18 19 24 
 28 
 22 
 2 3 4 5 6 7 9 10 12 13 14 15 
 16 17 18 19 20 22 24 25 29 30 
 20 
 1 2 3 4 5 7 8 10 11 12 13 18 
 19 21 22 23 24 27 28 29 
 24 
 2 3 4 5 6 7 8 9 12 14 16 18 
 19 20 21 22 23 24 25 26 27 28 29 30 
 14 
 1 3 4 5 6 8 13 14 17 21 22 24 
 28 29 
 10 
 2 6 10 13 15 17 20 21 22 28 
 20 
 1 2 3 4 5 7 9 10 11 12 13 15 
 17 18 20 22 23 25 27 28 
 10 
 2 7 8 11 12 16 19 21 23 28 
 8 
 3 6 7 8 10 12 18 23 
 29 
 1 2 3 4 5 6 7 8 9 10 11 12 
 13 14 15 16 17 18 19 20 22 23 24 25 
 26 27 28 29 30 
 12 
 3 6 8 10 13 14 16 21 22 23 25 27 
 24 
 1 2 4 5 6 7 8 9 11 12 13 14 
 15 18 19 20 21 23 24 25 26 27 28 29 
 24 
 1 2 3 4 5 7 8 9 10 12 14 15 
 17 18 19 20 21 22 23 25 27 28 29 30 
 11 
 4 5 7 11 13 16 17 21 26 28 30 
 22 
 1 2 3 4 6 7 8 10 11 12 13 15 
 16 18 19 20 21 23 24 25 28 29 
 18 
 2 4 5 6 8 11 13 14 15 16 19 21 
 22 23 25 26 29 30 
 